
  12    4
  10   10   10   10

   0   0   0   0   0   1 2 
  10  10  10  10  10   3 5 4 3 
   7  10  10  10  10   3 8 7 6 
   1  10  10  10  10   3 8 7 6 
   6  10  10  10  10   3 8 7 6 
   8  10  10  10  10   2 11 9 
   3  10  10  10  10   2 11 9 
   3  10  10  10  10   2 11 10 
   4  10  10  10  10   1 10 
   9  10  10  10  10   1 12
   7  10  10  10  10   1 12
   0   0   0   0   0   0 
